1011
1047
1047
1047
1035
1035
1068
1068
975
975
975
975
1008
1066
1082
1066
1071
1071
1034
1034
1015
1077
947
947
982
1041
1041
1041
1041
1012
984
984
984
984
984
1033
1047
988
988
988
1002
1045
1010
1045
1017
1027
1040
1085
1041
1041
1030
843
843
1009
1010
1038
1038
1038
988
988
1024
970
970
1046
1046
1046
1046
1030
1015
1015
949
821
1030
954
954
1028
998
1028
1036
914
914
914
914
914
997
925
925
925
987
971
1032
1032
811
811
951
951
951
987
976
976
976
976
998
951
998
998
985
997
997
928
895
895
819
819
819
819
819
819
819
819
819
819
819
938
958
889
1003
1016
1016
1012
1016
1002
920
920
920
936
946
938
953
929
929
929
929
929
905
929
861
861
861
861
845
845
902
982
895
895
895
895
901
901
901
984
893
893
893
873
873
873
871
871
871
932
982
980
976
995
905
905
916
865
865
865
987
986
986
998
998
998
970
970
942
942
961
989
919
919
919
923
804
897
923
993
1024
937
937
895
895
946
962
962
962
962
962
844
952
1022
928
946
946
946
991
991
969
959
958
920
890
917
920
920
952
935
935
935
935
935
935
935
935
957
953
1000
938
975
975
944
965
965
970
970
970
955
994
994
881
881
972
931
940
967
915
872
860
860
865
847
847
847
847
975
975
946
946
946
946
946
946
913
913
939
939
939
886
853
815
853
962
898
898
935
935
935
949
949
903
903
903
882
903
903
903
903
929
929
929
831
831
914
914
909
965
965
965
965
913
913
866
912
875
875
875
924
927
927
927
854
854
854
929
946
946
951
953
894
838
894
933
933
933
933
933
940
961
854
891
843
843
935
928
875
875
875
875
931
931
943
954
958
906
867
906
879
812
892
926
946
907
907
947
963
959
920
812
812
812
875
869
869
869
793
793
869
814
814
814
814
896
887
887
896
896
893
834
867
867
846
795
795
835
835
835
835
835
804
804
804
804
804
868
868
847
885
864
850
850
850
871
848
848
848
817
817
833
871
855
833
873
775
836
802
787
787
786
786
786
786
786
786
786
786
716
786
847
846
846
875
875
836
876
736
821
821
821
821
788
820
827
827
827
826
826
842
842
758
812
765
812
812
822
825
846
807
807
799
786
786
786
786
786
798
798
791
752
791
846
807
807
722
722
722
809
658
732
766
757
757
813
813
813
813
810
810
810
746
741
746
759
740
810
768
768
810
810
778
778
726
726
759
759
759
759
733
733
780
780
809
768
775
767
767
767
743
737
780
740
696
696
696
753
753
753
739
753
753
753
805
805
805
805
785
705
705
705
729
752
752
752
757
757
757
757
711
755
706
706
612
612
612
612
612
612
681
681
719
719
719
684
684
719
719
719
664
663
685
615
615
615
615
626
626
655
655
649
649
699
699
661
661
661
661
661
622
622
622
622
622
622
698
667
667
667
593
593
593
593
693
688
672
672
570
570
570
560
560
560
560
570
570
527
527
527
527
601
692
692
600
600
600
600
600
600
649
649
641
641
645
649
649
706
653
653
694
713
577
660
651
651
651
647
583
647
617
648
647
583
582
582
582
582
551
582
592
592
592
589
589
589
589
534
534
534
551
551
551
551
551
551
551
551
551
551
551
576
576
587
587
587
587
587
598
589
589
588
588
588
584
584
628
628
632
586
586
586
601
601
601
610
610
610
633
633
633
566
601
601
586
601
581
570
599
599
590
590
590
590
612
528
528
528
528
528
528
528
536
536
536
536
536
580
580
580
595
595
591
582
543
558
558
558
558
558
558
558
558
619
619
576
603
541
541
587
587
603
603
599
579
582
579
579
576
576
535
564
564
567
575
575
504
504
504
504
536
538
538
538
538
538
538
538
539
516
539
539
539
577
570
571
548
548
569
569
569
544
489
544
544
544
544
551
461
482
525
525
525
525
503
503
503
486
486
486
486
528
528
540
541
541
540
475
475
475
475
475
475
475
475
475
475
475
513
527
517
517
530
530
542
542
499
499
534
534
542
528
533
564
563
559
521
521
521
521
521
491
491
519
510
479
479
479
479
479
479
496
479
479
510
516
513
513
511
513
513
520
503
488
496
448
448
486
489
489
480
480
480
497
462
414
414
414
414
414
447
414
451
451
451
472
469
414
414
414
414
427
414
414
414
414
414
414
414
413
394
394
394
394
394
415
415
415
394
411
411
413
413
426
426
426
394
426
394
433
438
433
394
433
433
394
433
433
433
433
433
433
441
441
441
418
418
418
418
418
418
409
418
418
418
412
416
416
420
421
418
416
416
418
418
413
397
397
397
397
425
397
397
397
375
375
375
375
394
394
394
394
386
386
386
386
375
375
413
390
390
390
389
390
390
390
375
389
389
375
390
390
390
375
375
375
375
375
375
389
375
375
375
375
375
375
375
375
375
375
375
375
375
375
375
375
375
375
375
375
375
375
375
375
375
375
375
375
375
375
375
375
375
375
375
375
375
375
375
361
361
361
361
361
361
361
375
375
361
361
361
361
361
361
361
361
375
375
375
375
375
361
361
361
361
361
361
361
375
375
375
361
361
361
361
361
361
372
375
375
375
375
361
361
361
361
361
361
361
361
361
375
375
375
375
375
375
375
375
372
375
372
372
372
372
372
372
372
372
375
375
375
375
375
372
375
375
375
372
372
372
372
372
372
372
372
372
372
372
372
372
372
372
372
372
372
372
372
372
372
372
372
375
375
375
375
375
375
375
375
375
375
370
375
375
375
375
375
375
375
375
375
375
375
375
370
370
370
370
370
370
370
370
370
370
370
370
370
370
370
370
370
370
370
370
370
370
370
370
370
370
370
370
370
370
370
370
370
370
370
370
370
370
370
370
370
375
370
370
370
370
370
370
370
370
370
370
370
370
370
370
370
370
370
370
370
370
370
370
370
370
370
370
370
370
370
370
370
370
370
370
370
370
370
370
370
370
370
370
370
370
370
370
370
370
370
370
370
370
370
370
370
370
375
375
375
375
370
375
370
370
370
370
375
370
375
370
370
370
370
370
370
370
370
370
370
370
370
370
370
370
370
370
370
370
370
370
370
370
370
370
370
370
370
370
370
370
370
370
370
370
370
370
370
370
370
370
370
370
370
370
370
370
370
370
370
370
370
370
370
370
370
370
370
370
370
370
370
370
370
370
370
370
370
370
370
370
370
370
370
370
370
370
370
370
370
370
370
370
370
370
370
370
370
370
370
370
370
370
370
370
370
370
370
370
370
370
370
370
370
370
370
370
370
370
370
370
370
370
370
370
370
370
370
370
370
370
370
370
370
370
370
370
370
370
370
370
370
370
370
370
370
370
370
370
370
370
370
370
370
370
370
370
370
370
375
375
375
375
375
375
375
375
375
375
370
375
375
375
375
375
375
375
375
375
375
375
375
375
375
375
375
375
375
375
375
370
370
370
370
370
370
370
370
370
370
370
370
370
370
370
370
375
375
375
375
375
375
375
375
375
375
375
375
375
375
375
375
375
375
375
375
375
375
375
375
375
375
375
375
375
375
375
375
375
375
375
375
375
375
370
370
375
375
375
375
375
375
375
375
375
370
370
370
370
370
370
370
370
370
370
370
370
370
370
370
370
370
370
370
370
370
375
375
375
375
375
375
375
375
375
375
375
375
375
370
370
370
370
370
375
375
375
375
375
375
375
375
375
375
375
375
375
375
375
375
375
370
370
370
370
370
370
370
370
370
370
370
370
370
370
370
370
370
370
370
370
370
370
370
370
370
370
370
370
370
370
370
370
370
370
370
370
370
370
370
370
370
370
370
370
370
370
370
370
370
370
370
370
370
370
370
370
370
370
370
370
370
370
370
370
370
370
370
370
370
370
370
370
370
370
370
370
370
370
370
370
370
370
370
370
370
370
370
370
370
370
370
370
370
370
370
370
370
370
370
370
370
370
370
370
370
370
370
370
370
370
370
370
370
370
370
370
370
370
370
370
370
370
370
370
370
370
370
370
370
370
370
370
370
370
370
370
370
370
370
370
370
370
370
370
370
370
370
370
370
370
370
370
370
370
370
370
370
370
370
370
370
370
370
370
370
370
370
370
370
370
370
370
370
370
370
370
370
370
370
370
370
370
370
370
370
370
370
370
370
370
370
370
370
370
370
370
370
370
370
370
370
370
370
370
370
370
370
370
370
370
370
370
370
370
370
370
370
370
370
370
370
370
370
370
370
370
370
370
370
370
370
370
370
370
370
370
370
370
370
370
370
370
370
370
370
370
370
370
370
370
370
370
370
370
370
370
370
370
370
370
370
370
370
370
370
370
370
370
370
370
370
370
370
370
370
370
370
370
370
370
370
370
370
370
370
370
370
370
370
370
370
370
370
370
370
370
370
370
370
370
370
370
370
370
370
370
370
370
370
370
370
370
370
370
370
370
370
370
370
370
370
370
370
370
370
370
370
370
370
370
370
370
370
370
370
370
370
370
370
370
370
370
370
370
370
370
370
370
370
370
370
370
370
370
370
370
370
370
370
370
370
370
370
370
370
370
370
370
370
370
370
370
370
370
370
370
370
370
370
370
370
370
370
370
370
370
370
370
370
370
370
370
